p cnf 15 20
-1 14 -15 0 
-2 14 -15 0 
-3 13 14 -15 0 
-4 14 -15 0 
-5 15 0 
-6 15 0 
-7 14 -15 0 
-8 15 0 
-4 15 0 
-6 14 -15 0 
-1 15 0 
-9 14 -15 0 
-5 14 -15 0 
-7 15 0 
-2 15 0 
-8 14 -15 0 
-10 14 -15 0 
-11 14 -15 0 
-12 14 -15 0 
-13 3 14 -15 0 
